codes/ampl.out
Problem:    ampl
Rows:       4
Columns:    2
Non-zeros:  8
Status:     OPTIMAL
Objective:  obj = 8 (MAXimum)

   No.   Row name   St   Activity     Lower bound   Upper bound    Marginal
------ ------------ -- ------------- ------------- ------------- -------------
     1 obj          B              8                             
     2 constraint[0]
                    B              0                           2 
     3 constraint[1]
                    NU             4                           4      0.333333 
     4 constraint[2]
                    NU             5                           5       1.33333 

   No. Column name  St   Activity     Lower bound   Upper bound    Marginal
------ ------------ -- ------------- ------------- ------------- -------------
     1 x[0]         B              2             0               
     2 x[1]         B              3             0               

Karush-Kuhn-Tucker optimality conditions:

KKT.PE: max.abs.err = 0.00e+00 on row 0
        max.rel.err = 0.00e+00 on row 0
        High quality

KKT.PB: max.abs.err = 0.00e+00 on row 0
        max.rel.err = 0.00e+00 on row 0
        High quality

KKT.DE: max.abs.err = 2.22e-16 on column 1
        max.rel.err = 6.06e-17 on column 1
        High quality

KKT.DB: max.abs.err = 0.00e+00 on row 0
        max.rel.err = 0.00e+00 on row 0
        High quality

End of output
